presolving:
   (0.1s) running MILP presolver
   (0.2s) MILP presolver found nothing
(round 1, exhaustive) 0 del vars, 0 del conss, 0 add conss, 0 chg bounds, 0 chg sides, 0 chg coeffs, 9545 upgd conss, 0 impls, 9417 clqs
   (0.5s) probing: 51/9472 (0.5%) - 0 fixings, 0 aggregations, 0 implications, 0 bound changes
   (0.5s) probing aborted: 50/50 successive totally useless probings
   (0.5s) symmetry computation started: requiring (bin +, int -, cont +), (fixed: bin -, int +, cont -)
   (0.5s) no symmetry present
presolving (2 rounds: 2 fast, 2 medium, 2 exhaustive):
 0 deleted vars, 0 deleted constraints, 0 added constraints, 0 tightened bounds, 0 added holes, 0 changed sides, 128 changed coefficients
 0 implications, 9417 cliques
presolved problem has 9472 variables (9472 bin, 0 int, 0 impl, 0 cont) and 9545 constraints
    128 constraints of type <knapsack>
   9417 constraints of type <setppc>
transformed objective value is always integral (scale: 1)
Presolving Time: 0.48

 time | node  | left  |LP iter|LP it/n|mem/heur|mdpt |vars |cons |rows |cuts |sepa|confs|strbr|  dualbound   | primalbound  |  gap   | compl. 
p 0.6s|     1 |     0 |     0 |     - |  clique|   0 |9472 |9545 |9545 |   0 |  0 |   0 |   0 | 0.000000e+00 | 6.762500e+04 |    Inf | unknown
p 0.9s|     1 |     0 |     0 |     - | vbounds|   0 |9472 |9556 |9545 |   0 |  0 |  12 |   0 | 0.000000e+00 | 7.389000e+03 |    Inf | unknown
  5.4s|     1 |     0 | 10375 |     - |   121M |   0 |9472 |9566 |9545 |   0 |  0 |  32 |   0 | 3.597000e+03 | 7.389000e+03 | 105.42%| unknown
r 5.4s|     1 |     0 | 10375 |     - |rounding|   0 |9472 |9566 |9545 |   0 |  0 |  32 |   0 | 3.597000e+03 | 7.082000e+03 |  96.89%| unknown
  6.4s|     1 |     0 | 10553 |     - |   124M |   0 |9472 |9566 |9546 |   1 |  1 |  32 |   0 | 3.599833e+03 | 7.082000e+03 |  96.73%| unknown
r 6.5s|     1 |     0 | 10553 |     - |rounding|   0 |9472 |9566 |9546 |   1 |  1 |  32 |   0 | 3.599833e+03 | 7.077000e+03 |  96.59%| unknown
  7.0s|     1 |     0 | 11079 |     - |   126M |   0 |9472 |9566 |9547 |   2 |  2 |  32 |   0 | 3.604954e+03 | 7.077000e+03 |  96.31%| unknown
  7.5s|     1 |     0 | 11467 |     - |   127M |   0 |9472 |9566 |9548 |   3 |  3 |  32 |   0 | 3.607984e+03 | 7.077000e+03 |  96.15%| unknown
  7.9s|     1 |     0 | 11717 |     - |   128M |   0 |9472 |9566 |9549 |   4 |  4 |  32 |   0 | 3.610881e+03 | 7.077000e+03 |  95.99%| unknown
  8.5s|     1 |     0 | 12070 |     - |   129M |   0 |9472 |9566 |9550 |   5 |  5 |  32 |   0 | 3.612665e+03 | 7.077000e+03 |  95.89%| unknown
  9.1s|     1 |     0 | 12568 |     - |   130M |   0 |9472 |9566 |9551 |   6 |  6 |  32 |   0 | 3.616818e+03 | 7.077000e+03 |  95.67%| unknown
  9.5s|     1 |     0 | 12726 |     - |   131M |   0 |9472 |9566 |9552 |   7 |  7 |  32 |   0 | 3.617789e+03 | 7.077000e+03 |  95.62%| unknown
 10.2s|     1 |     0 | 13355 |     - |   132M |   0 |9472 |9566 |9553 |   8 |  8 |  32 |   0 | 3.621713e+03 | 7.077000e+03 |  95.40%| unknown
 10.5s|     1 |     0 | 13430 |     - |   133M |   0 |9472 |9566 |9554 |   9 |  9 |  32 |   0 | 3.622455e+03 | 7.077000e+03 |  95.36%| unknown
 11.0s|     1 |     0 | 13632 |     - |   134M |   0 |9472 |9566 |9555 |  10 | 10 |  32 |   0 | 3.623665e+03 | 7.077000e+03 |  95.30%| unknown
 time | node  | left  |LP iter|LP it/n|mem/heur|mdpt |vars |cons |rows |cuts |sepa|confs|strbr|  dualbound   | primalbound  |  gap   | compl. 
 11.2s|     1 |     0 | 13783 |     - |   135M |   0 |9472 |9566 |9556 |  11 | 11 |  32 |   0 | 3.624683e+03 | 7.077000e+03 |  95.24%| unknown
 11.5s|     1 |     0 | 13972 |     - |   136M |   0 |9472 |9566 |9557 |  12 | 12 |  32 |   0 | 3.625363e+03 | 7.077000e+03 |  95.21%| unknown
 12.0s|     1 |     0 | 14382 |     - |   137M |   0 |9472 |9566 |9558 |  13 | 13 |  32 |   0 | 3.628309e+03 | 7.077000e+03 |  95.05%| unknown
 12.3s|     1 |     0 | 14545 |     - |   138M |   0 |9472 |9566 |9559 |  14 | 14 |  32 |   0 | 3.630746e+03 | 7.077000e+03 |  94.92%| unknown
 12.7s|     1 |     0 | 14833 |     - |   139M |   0 |9472 |9566 |9560 |  15 | 15 |  32 |   0 | 3.632329e+03 | 7.077000e+03 |  94.83%| unknown
 13.1s|     1 |     0 | 15127 |     - |   140M |   0 |9472 |9566 |9561 |  16 | 16 |  32 |   0 | 3.632937e+03 | 7.077000e+03 |  94.80%| unknown
 13.5s|     1 |     0 | 15420 |     - |   141M |   0 |9472 |9566 |9562 |  17 | 17 |  32 |   0 | 3.635081e+03 | 7.077000e+03 |  94.69%| unknown
 13.8s|     1 |     0 | 15627 |     - |   142M |   0 |9472 |9566 |9563 |  18 | 18 |  32 |   0 | 3.635926e+03 | 7.077000e+03 |  94.64%| unknown
 14.3s|     1 |     0 | 15996 |     - |   143M |   0 |9472 |9566 |9564 |  19 | 19 |  32 |   0 | 3.637164e+03 | 7.077000e+03 |  94.57%| unknown
 14.5s|     1 |     0 | 16143 |     - |   144M |   0 |9472 |9566 |9565 |  20 | 20 |  32 |   0 | 3.637591e+03 | 7.077000e+03 |  94.55%| unknown
d25.8s|     1 |     0 | 37858 |     - |farkasdi|   0 |9472 |9562 |9565 |   0 | 22 |  32 |   0 | 3.637591e+03 | 5.555000e+03 |  52.71%| unknown
L54.0s|     1 |     0 | 81804 |     - |    rens|   0 |9472 |9562 |9565 |  20 | 22 |  32 |   0 | 3.637591e+03 | 4.159000e+03 |  14.33%| unknown
L54.2s|     1 |     0 | 81804 |     - |    alns|   0 |9472 |9562 |9565 |  20 | 22 |  32 |   0 | 3.637591e+03 | 3.885000e+03 |   6.80%| unknown
 54.4s|     1 |     0 | 81804 |     - |   145M |   0 |9472 |9562 |9565 |  20 | 22 |  32 |   0 | 3.637591e+03 | 3.885000e+03 |   6.80%| unknown
 54.5s|     1 |     0 | 81804 |     - |   146M |   0 |9472 |9561 |6212 |  20 | 22 |  32 |   0 | 3.637591e+03 | 3.885000e+03 |   6.80%| unknown
 time | node  | left  |LP iter|LP it/n|mem/heur|mdpt |vars |cons |rows |cuts |sepa|confs|strbr|  dualbound   | primalbound  |  gap   | compl. 
 54.6s|     1 |     0 | 81804 |     - |   146M |   0 |9472 |6208 |6128 |  20 | 23 |  32 |   0 | 3.637591e+03 | 3.885000e+03 |   6.80%| unknown
(run 1, node 1) restarting after 6299 global fixings of integer variables

(restart) converted 20 cuts from the global cut pool into linear constraints

presolving:
(round 1, fast)       6299 del vars, 11 del conss, 0 add conss, 0 chg bounds, 0 chg sides, 2016 chg coeffs, 0 upgd conss, 0 impls, 3202 clqs
   (54.8s) running MILP presolver
   (54.8s) MILP presolver found nothing
(round 2, exhaustive) 6299 del vars, 11 del conss, 0 add conss, 0 chg bounds, 0 chg sides, 2016 chg coeffs, 20 upgd conss, 0 impls, 3202 clqs
presolving (3 rounds: 3 fast, 2 medium, 2 exhaustive):
 6299 deleted vars, 12 deleted constraints, 0 added constraints, 0 tightened bounds, 0 added holes, 0 changed sides, 2016 changed coefficients
 0 implications, 3202 cliques
presolved problem has 3173 variables (3173 bin, 0 int, 0 impl, 0 cont) and 3270 constraints
     64 constraints of type <knapsack>
   3202 constraints of type <setppc>
      4 constraints of type <logicor>
transformed objective value is always integral (scale: 1)
Presolving Time: 0.60
transformed 4/7 original solutions to the transformed problem space

 time | node  | left  |LP iter|LP it/n|mem/heur|mdpt |vars |cons |rows |cuts |sepa|confs|strbr|  dualbound   | primalbound  |  gap   | compl. 
 57.2s|     1 |     0 | 91106 |     - |   148M |   0 |3173 |3270 |3266 |   0 |  0 |  32 |   0 | 3.637591e+03 | 3.885000e+03 |   6.80%| unknown
 57.3s|     1 |     0 | 91106 |     - |   148M |   0 |3173 |3270 |3112 |   0 |  0 |  32 |   0 | 3.637591e+03 | 3.885000e+03 |   6.80%| unknown
 57.4s|     1 |     0 | 91293 |     - |   148M |   0 |3173 |3116 |3110 |   1 |  1 |  32 |   0 | 3.638828e+03 | 3.885000e+03 |   6.77%| unknown
 57.5s|     1 |     0 | 91329 |     - |   149M |   0 |3173 |3114 |3111 |   2 |  2 |  32 |   0 | 3.638882e+03 | 3.885000e+03 |   6.76%| unknown
 57.7s|     1 |     0 | 91509 |     - |   149M |   0 |3173 |3114 |3112 |   3 |  3 |  32 |   0 | 3.641001e+03 | 3.885000e+03 |   6.70%| unknown
 57.8s|     1 |     0 | 91637 |     - |   149M |   0 |3173 |3114 |3113 |   4 |  4 |  32 |   0 | 3.641674e+03 | 3.885000e+03 |   6.68%| unknown
 57.9s|     1 |     0 | 91715 |     - |   149M |   0 |3173 |3114 |3114 |   5 |  5 |  32 |   0 | 3.642347e+03 | 3.885000e+03 |   6.66%| unknown
 58.1s|     1 |     0 | 91742 |     - |   150M |   0 |3173 |3114 |3115 |   6 |  6 |  32 |   0 | 3.642528e+03 | 3.885000e+03 |   6.66%| unknown
 58.2s|     1 |     0 | 91804 |     - |   150M |   0 |3173 |3114 |3116 |   7 |  7 |  32 |   0 | 3.642843e+03 | 3.885000e+03 |   6.65%| unknown
 58.3s|     1 |     0 | 91891 |     - |   150M |   0 |3173 |3114 |3117 |   8 |  8 |  32 |   0 | 3.644053e+03 | 3.885000e+03 |   6.61%| unknown
 62.8s|     1 |     2 | 91898 |     - |   151M |   0 |3173 |3049 |3117 |   8 | 10 |  32 |  19 | 3.665345e+03 | 3.885000e+03 |   5.99%| unknown
(run 2, node 1) restarting after 221 global fixings of integer variables

(restart) converted 8 cuts from the global cut pool into linear constraints

presolving:
(round 1, fast)       221 del vars, 0 del conss, 0 add conss, 0 chg bounds, 0 chg sides, 12 chg coeffs, 0 upgd conss, 0 impls, 2984 clqs
(round 2, exhaustive) 221 del vars, 0 del conss, 0 add conss, 0 chg bounds, 0 chg sides, 12 chg coeffs, 8 upgd conss, 0 impls, 2984 clqs
presolving (3 rounds: 3 fast, 2 medium, 2 exhaustive):
 221 deleted vars, 0 deleted constraints, 0 added constraints, 0 tightened bounds, 0 added holes, 0 changed sides, 12 changed coefficients
 0 implications, 2984 cliques
presolved problem has 2952 variables (2952 bin, 0 int, 0 impl, 0 cont) and 3057 constraints
     69 constraints of type <knapsack>
   2984 constraints of type <setppc>
      4 constraints of type <logicor>
transformed objective value is always integral (scale: 1)
Presolving Time: 0.68
transformed 5/8 original solutions to the transformed problem space

 time | node  | left  |LP iter|LP it/n|mem/heur|mdpt |vars |cons |rows |cuts |sepa|confs|strbr|  dualbound   | primalbound  |  gap   | compl. 
 64.3s|     1 |     0 | 98254 |     - |   152M |   0 |2952 |3057 |3053 |   0 |  0 |  32 |  19 | 3.665345e+03 | 3.885000e+03 |   5.99%| unknown
 64.4s|     1 |     0 | 98254 |     - |   152M |   0 |2952 |3057 |2961 |   0 |  0 |  32 |  19 | 3.665345e+03 | 3.885000e+03 |   5.99%| unknown
 64.6s|     1 |     0 | 98344 |     - |   153M |   0 |2952 |2965 |2960 |   1 |  1 |  32 |  19 | 3.665345e+03 | 3.885000e+03 |   5.99%| unknown
 64.7s|     1 |     0 | 98489 |     - |   153M |   0 |2952 |2964 |2961 |   2 |  2 |  32 |  19 | 3.665345e+03 | 3.885000e+03 |   5.99%| unknown
 64.9s|     1 |     0 | 98658 |     - |   153M |   0 |2952 |2964 |2962 |   3 |  3 |  32 |  19 | 3.665345e+03 | 3.885000e+03 |   5.99%| unknown
 65.2s|     1 |     0 | 98853 |     - |   154M |   0 |2952 |2964 |2963 |   4 |  4 |  32 |  19 | 3.665345e+03 | 3.885000e+03 |   5.99%| unknown
 65.4s|     1 |     0 | 98939 |     - |   154M |   0 |2952 |2964 |2964 |   5 |  5 |  32 |  19 | 3.665345e+03 | 3.885000e+03 |   5.99%| unknown
 71.0s|     1 |     2 | 98941 |     - |   154M |   0 |2952 |2911 |2964 |   5 |  7 |  32 |  39 | 3.675887e+03 | 3.885000e+03 |   5.69%| unknown
*83.1s|     7 |     0 |111387 |9776.2 |strongbr|   3 |2952 |2332 |2960 |   5 |  2 |  64 | 103 | 3.725714e+03 | 3.811000e+03 |   2.29%|  50.63%
*83.8s|     7 |     0 |111960 |9847.9 |strongbr|   3 |2952 |1959 |2960 |   5 |  5 |  74 | 114 | 3.760052e+03 | 3.769000e+03 |   0.24%|  50.63%

SCIP Status        : problem is solved [optimal solution found]
Solving Time (sec) : 83.75
Solving Nodes      : 7 (total of 9 nodes in 3 runs)
Primal Bound       : +3.76900000000000e+03 (11 solutions)
Dual Bound         : +3.76900000000000e+03
Gap                : 0.00 %
Solution: {'connections': {0: 40, 1: 70, 2: 40, 3: 87, 4: 40, 5: 40, 6: 40, 7: 40, 8: 70, 9: 87, 10: 40, 11: 70, 12: 70, 13: 70, 14: 40, 15: 87, 16: 87, 17: 70, 18: 70, 19: 40, 20: 40, 21: 40, 22: 87, 23: 70, 24: 70, 25: 40, 26: 87, 27: 40, 28: 87, 29: 70, 30: 87, 31: 40, 32: 87, 33: 70, 34: 40, 35: 70, 36: 40, 37: 40, 38: 70, 39: 70, 40: 70, 41: 87, 42: 40, 43: 40, 44: 70, 45: 40, 46: 40, 47: 70, 48: 87, 49: 40, 50: 70, 51: 87, 52: 87, 53: 87, 54: 87, 55: 40, 56: 70, 57: 70, 58: 70, 59: 70, 60: 87, 61: 40, 62: 70, 63: 70, 64: 87, 65: 70, 66: 40, 67: 70, 68: 87, 69: 87, 70: 70, 71: 40, 72: 40}, 'machines': {0: -0.0, 1: -0.0, 2: -0.0, 3: -0.0, 4: 0.0, 5: -0.0, 6: 0.0, 7: 0.0, 8: -0.0, 9: -0.0, 10: -0.0, 11: -0.0, 12: 0.0, 13: 0.0, 14: -0.0, 15: -0.0, 16: -0.0, 17: -0.0, 18: 0.0, 19: -0.0, 20: -0.0, 21: -0.0, 22: 0.0, 23: 0.0, 24: 0.0, 25: -0.0, 26: -0.0, 27: -0.0, 28: -0.0, 29: -0.0, 30: 0.0, 31: -0.0, 32: -0.0, 33: 0.0, 34: -0.0, 35: -0.0, 36: 0.0, 37: -0.0, 38: -0.0, 39: -0.0, 40: 1.0, 41: 0.0, 42: -0.0, 43: 0.0, 44: -0.0, 45: 0.0, 46: -0.0, 47: -0.0, 48: -0.0, 49: -0.0, 50: -0.0, 51: -0.0, 52: -0.0, 53: 0.0, 54: -0.0, 55: 0.0, 56: -0.0, 57: -0.0, 58: -0.0, 59: 0.0, 60: -0.0, 61: -0.0, 62: -0.0, 63: -0.0, 64: -0.0, 65: -0.0, 66: -0.0, 67: -0.0, 68: -0.0, 69: -0.0, 70: 1.0, 71: -0.0, 72: -0.0, 73: 0.0, 74: -0.0, 75: -0.0, 76: -0.0, 77: -0.0, 78: -0.0, 79: -0.0, 80: -0.0, 81: -0.0, 82: 0.0, 83: -0.0, 84: 0.0, 85: -0.0, 86: 0.0, 87: 1.0, 88: -0.0, 89: -0.0, 90: 0.0, 91: -0.0, 92: -0.0, 93: -0.0, 94: 0.0, 95: -0.0, 96: -0.0, 97: 0.0, 98: 0.0, 99: -0.0, 100: -0.0, 101: 0.0, 102: -0.0, 103: 0.0, 104: -0.0, 105: 0.0, 106: 0.0, 107: -0.0, 108: -0.0, 109: -0.0, 110: 0.0, 111: 0.0, 112: 0.0, 113: -0.0, 114: -0.0, 115: 0.0, 116: -0.0, 117: -0.0, 118: -0.0, 119: -0.0, 120: -0.0, 121: 0.0, 122: -0.0, 123: 0.0, 124: 0.0, 125: -0.0, 126: -0.0, 127: 0.0}}
Total Cost: 3769.00
